c Lingeling SAT Solver
c 
c Version ala b02aa1a04343558c4252b5f4a723be021964f652
c 
c Copyright (C) 2010-2012 Armin Biere JKU Linz Austria.
c All rights reserved.
c 
c released Sat Oct 13 14:05:26 CEST 2012
c compiled Sat Feb 16 02:48:12 EST 2013
c 
c gcc (Debian 4.4.5-8) 4.4.5
c -Wall -O3 -DNLGLOG -DNDEBUG -DNCHKSOL -DNLGLPICOSAT 
c Linux greencar2 2.6.32-5-amd64 x86_64
c 
c reading input file p72.cnf
c no embedded options
c found 'p cnf 226967 696414' header
c read 226967 variables, 696414 clauses, 1449605 literals in 0.0 seconds
c
c feature vars 226967
c feature lits.total 1449605
c feature lits.pos 773382
c feature lits.neg 676223
c feature clauses.total 696414
c feature clauses.unit 83763
c feature clauses.bin 493311
c feature clauses.trn 117940
c feature clauses.lrg 1400
c feature cog.val.min 1
c feature cog.val.avg 101041
c feature cog.val.max 216425
c feature cog.var.min 1
c feature cog.var.avg 113484
c feature cog.var.max 226966
c
c
c --abstime=0
c --acts=2
c --actavgmax=120
c --actstdmin=20
c --actstdmax=80
c --agile=23
c --bias=2
c --block=1
c --blkrtc=0
c --blkclslim=2000
c --blkocclim=2000
c --blkmaxeff=2147483647
c --blkmineff=10000000
c --blkreleff=20
c --card=0
c --cce=3
c --ccemaxeff=100000000
c --ccemineff=5000000
c --ccereleff=3
c --check=0
c --cgrclsr=1
c --cgrmaxority=20
c --cgrmaxeff=8000000
c --cgrmineff=200000
c --cgreleff=1
c --cgrexteq=1
c --cgrextand=1
c --cgrextunits=1
c --cgrextite=1
c --cgrextxor=1
c --cliff=1
c --cliffreleff=8
c --cliffmineff=10000000
c --cliffmaxeff=100000000
c --compact=0
c --decompose=1
c --defragint=10000000
c --defragfree=50
c --elim=1
c --elmrtc=0
c --elmblk=1
c --elmclslim=1000
c --elmocclim=1000
c --elmaxeff=100000000
c --elmineff=5000000
c --elmreleff=10
c --sleeponabort=0
c --exitonabort=0
c --flipping=1
c --flipint=2
c --flipdur=50
c --fliptop=1
c --force=0
c --gauss=1
c --gaussextrall=1
c --gaussmaxor=20
c --gaussexptrn=1
c --gaussmaxeff=50000000
c --gaussmineff=2000000
c --gaussreleff=2
c --gluescale=2
c --gluekeep=0
c --inprocessing=1
c --cintinc=10000
c --irrlim=20
c --lift=1
c --lftmaxeff=20000000
c --lftmineff=500000
c --lftreleff=6
c --lhbr=1
c --lkhd=1
c --clim=-1
c --mocint=1000
c --move=2
c --log=-1
c --otfs=1
c --phase=0
c --phaseneginit=0
c --plain=0
c --probe=1
c --prbasicmaxeff=100000000
c --prbasicmineff=1000000
c --prbasicreleff=10
c --prbasic=1
c --prbasicroundlim=9
c --queuemergelim=10000
c --queuefactor=833
c --queueinc=20
c --rmincpen=4
c --seed=0
c --smallirr=90
c --smallve=1
c --smallvevars=12
c --randec=1
c --randecint=1000
c --redfixed=0
c --redlbound=0
c --redlexpfac=10
c --redldoutfac=0
c --redloutinc=10000
c --redlinit=1000
c --redlinc=1000
c --redinoutinc=100
c --redlmininc=10
c --redlmaxinc=200
c --redlminrel=10
c --redlmaxrel=300
c --redlminabs=500
c --redlmaxabs=1000000
c --reduce=1
c --restart=2
c --restartint=5
c --rstinoutinc=110
c --simplify=1
c --simpdelay=100
c --simpen=4
c --sizepen=1000000
c --sizemaxpen=3
c --sortlits=0
c --syncint=111111
c --termint=122222
c --ternres=1
c --ternresrtc=0
c --trnrmineff=4000000
c --trnrmaxeff=40000000
c --trnreleff=10
c --transred=1
c --trdmineff=100000
c --trdmaxeff=2000000
c --trdreleff=10
c --unhide=1
c --unhdextstamp=1
c --unhdhbr=0
c --unhdmaxeff=20000000
c --unhdmineff=1000000
c --unhdreleff=4
c --unhdlnpr=3
c --unhdroundlim=5
c --verbose=1
c --witness=1
c [limits] no conflict limit
c [limits] simplification delayed by 100 to 100 conflicts
c 
c  seconds         irredundant          redundant clauses agility   height
c          variables clauses conflicts large binary ternary    glue         MB
c 
c *    0.0  124140   510375         0       0      0     0  64  0.0   0.0   42
c [cut-width] 167450, max 264441, min4 98900 at 75%, min10 40937 at 87%
c [decision-order] bias 1, old 1
c [queue-schedule-all-variables]
c s    0.0  124140   510375         0       0      0     0  64  0.0   0.0   42
c [simplification-1] limit hit at 100 conflicts
c [simplification-1] simplification penalty of 4
c [ternres-1] limit 4000000 with penalty 0 = 0 + 0
c [ternres-1] all 124140 free variables schedulable
c [ternres-1] 0 ternary resolvents (0 bin, 0 trn)
c [ternres-1] 7405 variables remain 6% (116735 retained)
c [gauss-1] limit 2000000 penalty 0 = 0 + 0
c [gauss-1] extracted 173191 xors of average arity 2.0
c [gauss-1] connected 346385 occurrences of 101758 variables (average 3.4)
c [gauss-1] limit 2000000 penalty 0 = 0 + 0
c [gauss-1] exported 0 unary, 0 binary and 0 ternary equations
c G    0.7  124140   485441       100     100      0     0  48  5.0 427.5   27
c d    0.9   56106   248233       100     100      0     0  48  5.0 427.5   21
c [basicprobe-1] limit 1000000 penalty 0 = 0 + 0
c [basicprobe-1-0] 5232 probes remain 9% after last round
c [basicprobe-1-0] removed 0 variables, found 4147 hbrs
c p    0.9   56106   248233       100     100   4147     0  48  5.0 427.5   25
c [cgrclsr-1] limit 200000 penalty 0 = 0 + 0
c [cgrclsr-1] all 56106 free variables schedulable
c [cgrclsr-1] fully completed congruence closure
c [lift-1] limit 500000 with penalty 0 = 0 + 0
c [lift-1] using 56106 probes 100%
c [lift-1] 56065 variables remain 100% (41 retained)
c [cliff-1] limit of 10000000 steps penalty 0 = 0 + 0
c [cliff-1] failed 1, lifted 7
c K    1.5   56098   248233       100     100  13474     0  48  5.0 427.5   25
c [unhide-1] limit 1000000 with penalty 0 = 0 + 0
c [unhide-1-1] 0 units, 0 failed, 20307 tauts, 0 hbrs, 77 literals
c u    1.6   56098   227888       100     100  13472     0  48  5.0 427.5   25
c [transred-1] limit 100000 with penalty 0 = 0 + 0
c t    1.6   56098   227888       100     100  13466     0  48  5.0 427.5   25
c [block-1] scheduling all variables this time
c [block-1] scheduled 56098 variables 100%
c [block-1] limit of 10000000 steps penalty 0 = 0 + 0
c [block-1] fully completed blocked clause elimination
c [block-1] transition to [ all 0 rem 0 ] state
c [block-1] eliminated 5800 blocked clauses
c k    1.7   56098   222088       100     100  13666  5600  48  5.0 427.5   21
c [cce-1] scheduling all variables this time
c [cce-1] limit of 10000000 steps penalty 0 = 0 + 0
c [cce-1] incomplete covered clause elimination 49052 not tried 87%
c [cce-1] transition to [ all 1 rem 1 ] state
c [cce-1] eliminated 1227 covered clauses
c E    2.2   56098   220861       100     100  18545  5600  48  5.0 427.5   24
c [elim-1] scheduling all variables this time
c [elim-1] scheduled 56098 variables 100%
c [elim-1] limit of 5000000 steps penalty 0 = 0 + 0
c [elim-1] incomplete variable elimination 39692 not tried 71%
c [elim-1] transition to [ all 1 rem 1 ] state
c [elim-1] eliminated 7981 = 14% variables out of 56098
c e    3.1   48117   216121       100      43   5345   596  48  5.0 427.5   23
c [phase-1] phase bias: 1501 positive 16%, 7872 negative 84%
c [simplification-1] removed 76023 variables 61%
c [simplification-1] limit increments divided by 31
c [simplification-1] arithmetic increase of conflict limit interval by 322
c [simplification-1] new irredundant limit 2245583
c [simplification-1] new conflict limit 422
c [simplification-1] simplification penalty reduced to 3
c R    3.3   48117   216121       403     321   5353   611  10  7.6 594.3   27
c [simplification-2] limit hit at 422 conflicts
c [simplification-2] simplification penalty of 3
c [ternres-2] limit 2000000 with penalty 1 = 1 + 0
c [ternres-2] 2872 schedulable variables 6%
c [ternres-2] 0 ternary resolvents (0 bin, 0 trn)
c [ternres-2] fully completed ternary resolution
c [gauss-2] limit 1000000 penalty 1 = 1 + 0
c [gauss-2] extracted 615 xors of average arity 3.0
c [gauss-2] connected 1845 occurrences of 1140 variables (average 1.6)
c [gauss-2] limit 1000000 penalty 1 = 1 + 0
c [gauss-2] fully completed
c [gauss-2] exported 0 unary, 0 binary and 0 ternary equations
c G    3.4   48117   216121       422     335   5353   616   7  7.5 567.6   23
c [basicprobe-2] limit 500000 penalty 1 = 1 + 0
c [basicprobe-2-0] 4696 probes remain 10% after last round
c [basicprobe-2-0] removed 0 variables, found 870 hbrs
c p    3.5   48117   216121       422     335   6223   615   7  7.5 567.6   27
c [cgrclsr-2] limit 100000 penalty 1 = 1 + 0
c [cgrclsr-2] all 48117 free variables schedulable
c [cgrclsr-2] fully completed congruence closure
c [lift-2] limit 250000 with penalty 1 = 1 + 0
c [lift-2] using 48082 probes 100%
c [lift-2] 48057 variables remain 100% (60 retained)
c [cliff-2] limit of 10000000 steps penalty 0 = 0 + 0
c [cliff-2] failed 0, lifted 0
c [unhide-2] limit 1000000 with penalty 0 = 0 + 0
c [unhide-2-2] 0 units, 0 failed, 1068 tauts, 0 hbrs, 112 literals
c u    4.1   48117   216116       422     335   6323   612   7  7.5 567.6   27
c [transred-3] limit 100000 with penalty 0 = 0 + 0
c t    4.1   48117   216110       422     335   6319   612   7  7.5 567.6   27
c [block-2] scheduling all variables this time
c [block-2] scheduled 48117 variables 100%
c [block-2] limit of 10000000 steps penalty 0 = 0 + 0
c [block-2] fully completed blocked clause elimination
c [block-2] transition to [ all 0 rem 0 ] state
c [block-2] eliminated 2 blocked clauses
c k    4.3   48117   216108       422     335   6321   612   7  7.5 567.6   23
c [cce-2] 45061 variables 94% will be scheduled this time
c [cce-2] limit of 10000000 steps penalty 0 = 0 + 0
c [cce-2] 44331 variables 92% remain to be tried next time
c [cce-2] transition to [ all 0 rem 1 ] state
c [cce-2] eliminated 427 covered clauses
c E    4.6   48117   215681       422     335   6804   612   7  7.5 567.6   23
c [elim-2] 39630 variables 82% will be scheduled this time
c [elim-2] scheduled 39630 variables 82%
c [elim-2] limit of 5000000 steps penalty 0 = 0 + 0
c [elim-2] 29503 variables 61% remain to be tried next time
c [elim-2] transition to [ all 0 rem 1 ] state
c [elim-2] eliminated 1359 = 3% variables out of 48117
c e    5.6   46758   215045       422     302   4749   609   7  7.5 567.6   23
c [phase-2] phase bias: 0 positive 0%, 0 negative 0%
c [simplification-2] removed 1359 variables 2%
c [simplification-2] limit increments divided by 2
c [simplification-2] arithmetic increase of conflict limit interval by 5000
c [simplification-2] new irredundant limit 2245583
c [simplification-2] new conflict limit 5744
c [simplification-2] simplification penalty reduced to 2
c R    5.9   46758   215045       970     776   4765   660   3  7.3 398.6   28
c -    6.2   46758   215045      1294     515   4782   710   2  6.7 346.3   28
c R    6.5   46758   215045      2264    1393   4799   778   3  7.3 330.8   28
c 1    7.6   46758   215045      4126    3005   4853   955   3  6.9 301.6   28
c 
c blkd: 2 bces, 5802 removed, 1306285 resolutions, 3615072 steps
c blkd: 9893 blocking literals 2%, 0 pure
c cces: 2 cces, 1654 eliminated, 459 ate 28%, 1195 abce 72%
c cces: 15552 probed, 0 lifted, 0 failed
c clff: 2 cliffs, 7 lifted, 1 failed
c clff: 10687 decisions, 20006754 steps
c clls: 1 sat, 0 simp, 0 freeze, 0 melt
c clls: 2146019 add, 0 assume,, 0 deref, 0 failed
c clls: 0 cassume, 0 mosat
c coll: 12 gcs, 0 rescored clauses
c cgrs: 2 count, 300011 esteps, 84278 csteps
c cgrs: 0 eqs, 0 units
c cgrs: 0 matched (0 ands 0%, 0 xors 0%, 0 ites 0%)
c cgrs: 0 simplified (0 ands 0%, 0 xors 0%, 0 ites 0%)
c cgrs: 2448 extracted (2052 ands 84%, 396 xors 16%, 0 ites 0%)
c dcps: 2 decompositions, 68034 equivalent 30%
c decs: 120661 decision, 126 random 0.104%
c decs: 33408 flipped 27.687% (in 31 phases)
c elms: 2 elims, 9340 eliminated 4%
c elms: 9081 small 97%, 259 large 3%
c elms: 26438 tried small, 9081 succeeded 34%, 17357 failed 66%
c elms: 0 subsumed, 0 strengthened, 199 blocked
c elms: 318073 copies, 224586 resolutions, 645380 ipos
c elms: 59 subchks, 6 strchks
c frcs: 0 computed, 34.3 - 65.7 average min-cut range
c gaus: 2 extractions, 173806 extracted, 2.0 size, 3 max
c gaus: exported 0 units, 0 binary and 0 ternary equations
c gaus: 0 gc, 6000046 steps, 3000023 extr 50%, 2288528 elim 38%
c glue: 6.9 avg, 2.7 scaled avg
c glue: 0 maxredglue=15 (0%)
c lift: 2 phases, 396 probed (132 level1 33%, 264 level2 67%)
c lift: 0 units, 0 equivalences, 1 implications
c hbrs: 19219 hbrs = 19219 trn 100% + 0 lrg 0%, 4 sub 0%
c lrnd: 4089 clauses, 2256 uips 55%, 13.5 length, 6.9 glue
c ints: 253 luby (28393 steps), 0 inout (0 steps)
c mins: 55216 learned lits, 3% minimized
c move: moved 7456, 1856 binary 25%, 5600 ternary 75%
c otfs: str 242 dyn (208 red, 34 irr) 37 drv 15%, 205 rst 85%
c otfs: sub 2 dyn (2 red, 0 irr)
c phas: 2 computed, 9521 set, 1501 pos (16%), 8020 neg (84%)
c prbs: 2 basic, 1954 probed, 0 failed, 0 lifted
c prps: 17526863 props, 88 props/dec
c prps: 60% srch, 40% simp, 0% lkhd
c psns: 410828 searches, 18328 hits, 4% hit rate
c queu: 13359 new, 5432 del, 119 maximum priority
c queu: 7914 merged, 772 collected, 2 gcs
c queu: 4331 deprioritized, 20.7 lines on average
c reds: 1 count, 0 reset, 1 acts 100%, 0 exp 0%
c reds: 1 arithmetic 100%, 1 double 100%
c rmbd: 5 removed, 0 red 0%
c rsts: 215 restarts 85%, 37 skipped 15%
c rsts: 41 kept 19.1% average 47.2%
c simp: 2 count (0 ilim 0%, 0 plim 0%, 2 clim 100%)
c trnr: 2 count, 0 bin, 0 trn, 4187347 steps
c tops: 102835 fixed 45%, 0 iterations
c trds: 4 transitive reductions, 16 removed, 0 failed
c trds: 342 nodes, 445 edges, 200249 steps
c unhd: 2 count, 2 rounds, 2295742 steps
c unhd: 0 non-trivial sccs of average size 0.0
c unhd: 0 units, 0 bin, 0 trn, 0 lrg
c unhd: 0 failed, 0 stamp, 0 lits, 0 bin, 0 trn, 0 lrg
c unhd: 21375 tauts, 0 bin 0%, 0 trn 0%, 0 lrg 0%
c unhd: 21375 tauts, 21375 stamp 100%, 1068 red 5%
c unhd: 0 hbrs, 0 trn 0%, 0 lrg 0%, 0 red 0%
c unhd: 189 strd, 0 bin 0%, 0 trn 0%, 189 lrg 100%, 178 red 94%
c vars: 46758 remaining 21% and 180209 removed 79% out of 226967
c vars: 102835 fixed 45%, 9340 eliminated 4%, 68034 equivalent 30%
c vsts: 83626043 visits, 63% srch, 37% simp, 0% lkhd
c vsts: 5.0 search visits per propagation 12751.7 per conflict
c wchs: 8055354 pushed, 3582048 enlarged, 20 defrags
c 
c scaledglue  added       reduced       forcing      resolved     conflicts
c 
c all      3621 100       514 100     25211 100      6384 100       440 100
c 
c  0          0   0         0   0         0   0         0   0         0   0 
c  1         14   0         0   0        36   0        19   0         0   0 
c  2        939  26        96  19      8437  33      1307  20        45  10 
c  3       1685  47<      291  57<    13081  52<     3025  47<      198  45<
c  4        887  24       110  21      3501  14      1877  29       186  42 
c  5         72   2        13   3       126   0       123   2         8   2 
c  6         17   0         2   0        20   0        25   0         3   1 
c  7          3   0         0   0         4   0         3   0         0   0 
c  8          3   0         1   0         5   0         4   0         0   0 
c  9          1   0         1   0         1   0         1   0         0   0 
c 10          0   0         0   0         0   0         0   0         0   0 
c 11          0   0         0   0         0   0         0   0         0   0 
c 12          0   0         0   0         0   0         0   0         0   0 
c 13          0   0         0   0         0   0         0   0         0   0 
c 14          0   0         0   0         0   0         0   0         0   0 
c 15          0   0         0   0         0   0         0   0         0   0 
c 
c avg             3.0           3.1           2.8           3.1           3.4
c std             0.8           0.8           0.7           0.8           0.7
c 
c 120661 decisions, 4126 conflicts, 544.9 conflicts/sec
c 17526863 propagations, 2.3 megaprops/sec
c 7.6 seconds, 47.8 MB
c 
c    0.236   3% analysis
c    0.272   4% block
c    0.008   0% bump
c    0.000   0% card
c    0.780  10% cce
c    0.688   9% cliff
c    0.016   0% cutwidth
c    0.164   2% decide
c    0.000   0% force
c    0.532   7% gc
c    0.188   2% cgrclsr
c    0.228   3% decomp
c    0.140   2% defrag
c    1.940  26% elim
c    0.692   9% gauss
c    0.176   2% lift
c    0.024   0% mincls
c    0.048   1% phase
c    0.096   1% probe
c    0.000   0% reduce
c    0.136   2% restart
c    0.080   1% ternres
c    0.012   0% transred
c    0.220   3% unhide
c ==================================
c    0.016   0% preprocessing     0%
c    5.504  73% inprocessing    100%
c ==================================
c    5.520  73% simplifying
c    0.000   0% lookahead
c    2.040  27% search
c ==================================
c    7.572 100% all
c
s SATISFIABLE
